\ LP format - for model browsing. Use MPS format to capture full model detail.
Minimize
  0.25 g_01 + 0.25 g_02 + 0.25 g_03 + 0.25 g_04 + 0.25 g_10 + 0.25 g_12
   + 0.25 g_13 + 0.25 g_14 + 0.25 g_20 + 0.25 g_21 + 0.25 g_23 + 0.25 g_24
   + 0.25 g_30 + 0.25 g_31 + 0.25 g_32 + 0.25 g_34 + 0.25 g_40 + 0.25 g_41
   + 0.25 g_42 + 0.25 g_43 + g1 + g2
Subject To
 R0: - f_0 - f_1 + l_01 + l_10 + b_01 + b_10 >= -1
 R1: - f_0 - f_2 + l_02 + l_20 + b_02 + b_20 >= -1
 R2: - f_0 - f_3 + l_03 + l_30 + b_03 + b_30 >= -1
 R3: - f_0 - f_4 + l_04 + l_40 + b_04 + b_40 >= -1
 R4: - f_0 - f_1 + l_01 + l_10 + b_01 + b_10 >= -1
 R5: - f_1 - f_2 + l_12 + l_21 + b_12 + b_21 >= -1
 R6: - f_1 - f_3 + l_13 + l_31 + b_13 + b_31 >= -1
 R7: - f_1 - f_4 + l_14 + l_41 + b_14 + b_41 >= -1
 R8: - f_0 - f_2 + l_02 + l_20 + b_02 + b_20 >= -1
 R9: - f_1 - f_2 + l_12 + l_21 + b_12 + b_21 >= -1
 R10: - f_2 - f_3 + l_23 + l_32 + b_23 + b_32 >= -1
 R11: - f_2 - f_4 + l_24 + l_42 + b_24 + b_42 >= -1
 R12: - f_0 - f_3 + l_03 + l_30 + b_03 + b_30 >= -1
 R13: - f_1 - f_3 + l_13 + l_31 + b_13 + b_31 >= -1
 R14: - f_2 - f_3 + l_23 + l_32 + b_23 + b_32 >= -1
 R15: - f_3 - f_4 + l_34 + l_43 + b_34 + b_43 >= -1
 R16: - f_0 - f_4 + l_04 + l_40 + b_04 + b_40 >= -1
 R17: - f_1 - f_4 + l_14 + l_41 + b_14 + b_41 >= -1
 R18: - f_2 - f_4 + l_24 + l_42 + b_24 + b_42 >= -1
 R19: - f_3 - f_4 + l_34 + l_43 + b_34 + b_43 >= -1
 R20: x_0 - x_1 + 12 l_01 <= 7
 R21: x_0 - x_2 + 12 l_02 <= 7
 R22: x_0 - x_3 + 12 l_03 <= 7
 R23: x_0 - x_4 + 12 l_04 <= 7
 R24: - x_0 + x_1 + 12 l_10 <= 7
 R25: x_1 - x_2 + 12 l_12 <= 7
 R26: x_1 - x_3 + 12 l_13 <= 7
 R27: x_1 - x_4 + 12 l_14 <= 7
 R28: - x_0 + x_2 + 12 l_20 <= 7
 R29: - x_1 + x_2 + 12 l_21 <= 7
 R30: x_2 - x_3 + 12 l_23 <= 7
 R31: x_2 - x_4 + 12 l_24 <= 7
 R32: - x_0 + x_3 + 12 l_30 <= 5
 R33: - x_1 + x_3 + 12 l_31 <= 5
 R34: - x_2 + x_3 + 12 l_32 <= 5
 R35: x_3 - x_4 + 12 l_34 <= 5
 R36: - x_0 + x_4 + 12 l_40 <= 7
 R37: - x_1 + x_4 + 12 l_41 <= 7
 R38: - x_2 + x_4 + 12 l_42 <= 7
 R39: - x_3 + x_4 + 12 l_43 <= 7
 R40: y_0 - y_1 + 12 b_01 <= 7
 R41: y_0 - y_2 + 12 b_02 <= 7
 R42: y_0 - y_3 + 12 b_03 <= 7
 R43: y_0 - y_4 + 12 b_04 <= 7
 R44: - y_0 + y_1 + 12 b_10 <= 7
 R45: y_1 - y_2 + 12 b_12 <= 7
 R46: y_1 - y_3 + 12 b_13 <= 7
 R47: y_1 - y_4 + 12 b_14 <= 7
 R48: - y_0 + y_2 + 12 b_20 <= 7
 R49: - y_1 + y_2 + 12 b_21 <= 7
 R50: y_2 - y_3 + 12 b_23 <= 7
 R51: y_2 - y_4 + 12 b_24 <= 7
 R52: - y_0 + y_3 + 12 b_30 <= 6
 R53: - y_1 + y_3 + 12 b_31 <= 6
 R54: - y_2 + y_3 + 12 b_32 <= 6
 R55: y_3 - y_4 + 12 b_34 <= 6
 R56: - y_0 + y_4 + 12 b_40 <= 7
 R57: - y_1 + y_4 + 12 b_41 <= 7
 R58: - y_2 + y_4 + 12 b_42 <= 7
 R59: - y_3 + y_4 + 12 b_43 <= 7
 R60: x_0 >= 0
 R61: x_1 >= 0
 R62: x_2 >= 0
 R63: x_3 >= 0
 R64: x_4 >= 0
 R65: x_0 <= 7
 R66: x_1 <= 7
 R67: x_2 <= 7
 R68: x_3 <= 5
 R69: x_4 <= 7
 R70: y_0 >= 0
 R71: y_1 >= 0
 R72: y_2 >= 0
 R73: y_3 >= 0
 R74: y_4 >= 0
 R75: y_0 <= 7
 R76: y_1 <= 7
 R77: y_2 <= 7
 R78: y_3 <= 6
 R79: y_4 <= 7
 R80: - 25 f_0 - 25 f_1 - 25 f_2 - 42 f_3 - 25 f_4 - g1 = -142
 R81: - 25 f_0 - 25 f_1 - 25 f_2 - 42 f_3 - 25 f_4 - g1 = -142
 R82: - 25 f_0 - 25 f_1 - 25 f_2 - 42 f_3 - 25 f_4 - g1 = -142
 R83: - 25 f_0 - 25 f_1 - 25 f_2 - 42 f_3 - 25 f_4 - g1 = -142
 R84: - 25 f_0 - 25 f_1 - 25 f_2 - 42 f_3 - 25 f_4 - g1 = -142
 R85: 12 f_0 + 12 f_1 + 12 f_2 + 20 f_3 + 12 f_4 + g2 = 10
 R86: 12 f_0 + 12 f_1 + 12 f_2 + 20 f_3 + 12 f_4 + g2 = 10
 R87: 12 f_0 + 12 f_1 + 12 f_2 + 20 f_3 + 12 f_4 + g2 = 10
 R88: 12 f_0 + 12 f_1 + 12 f_2 + 20 f_3 + 12 f_4 + g2 = 10
 R89: 12 f_0 + 12 f_1 + 12 f_2 + 20 f_3 + 12 f_4 + g2 = 10
 R90: - f_0 - f_1 + g_01 >= -1
 R91: - f_0 - f_2 + g_02 >= -1
 R92: - f_0 - f_3 + g_03 >= -1
 R93: - f_0 - f_4 + g_04 >= -1
 R94: - f_0 - f_1 + g_10 >= -1
 R95: - f_1 - f_2 + g_12 >= -1
 R96: - f_1 - f_3 + g_13 >= -1
 R97: - f_1 - f_4 + g_14 >= -1
 R98: - f_0 - f_2 + g_20 >= -1
 R99: - f_1 - f_2 + g_21 >= -1
 R100: - f_2 - f_3 + g_23 >= -1
 R101: - f_2 - f_4 + g_24 >= -1
 R102: - f_0 - f_3 + g_30 >= -1
 R103: - f_1 - f_3 + g_31 >= -1
 R104: - f_2 - f_3 + g_32 >= -1
 R105: - f_3 - f_4 + g_34 >= -1
 R106: - f_0 - f_4 + g_40 >= -1
 R107: - f_1 - f_4 + g_41 >= -1
 R108: - f_2 - f_4 + g_42 >= -1
 R109: - f_3 - f_4 + g_43 >= -1
Bounds
Binaries
 f_0 f_1 f_2 f_3 f_4 l_01 l_02 l_03 l_04 l_10 l_12 l_13 l_14 l_20 l_21 l_23
 l_24 l_30 l_31 l_32 l_34 l_40 l_41 l_42 l_43 b_01 b_02 b_03 b_04 b_10 b_12
 b_13 b_14 b_20 b_21 b_23 b_24 b_30 b_31 b_32 b_34 b_40 b_41 b_42 b_43 g_01
 g_02 g_03 g_04 g_10 g_12 g_13 g_14 g_20 g_21 g_23 g_24 g_30 g_31 g_32 g_34
 g_40 g_41 g_42 g_43
End
